100
49 490 99 49 55 55 343 55 98 343 343 49 392 66 33 49 147 441 392 110 11 66 22 88 294 77 22 11 77 98 343 490 343 490 55 110 343 77 245 88 147 196 77 441 77 98 147 196 11 441 147 99 392 88 147 294 343 11 77 88 245 66 88 66 33 55 88 245 11 392 441 110 196 110 490 441 33 33 294 294 66 77 22 33 22 110 98 66 392 99 343 55 245 441 99 110 441 392 441 11 
42 420 432 42 240 240 294 240 84 294 294 42 336 288 144 42 126 378 336 480 48 288 96 384 252 336 96 48 336 84 294 420 294 420 240 480 294 336 210 384 126 168 336 378 336 84 126 168 48 378 126 432 336 384 126 252 294 48 336 384 210 288 384 288 144 240 384 210 48 336 378 480 168 480 420 378 144 144 252 252 288 336 96 144 96 480 84 288 336 432 294 240 210 378 432 480 378 336 378 48 
8821
